param n := 120;
param c := 10000
param : V : p w :=
   0	 468	 458
   1	 262	 252
   2	 300	 290
   3	 507	 497
   4	 260	 250
   5	 263	 253
   6	 456	 446
   7	 286	 276
   8	 288	 278
   9	 397	 387
  10	 284	 274
  11	 349	 339
  12	 472	 462
  13	 278	 268
  14	 280	 270
  15	 482	 472
  16	 268	 258
  17	 280	 270
  18	 387	 377
  19	 286	 276
  20	 357	 347
  21	 494	 484
  22	 263	 253
  23	 273	 263
  24	 500	 490
  25	 262	 252
  26	 268	 258
  27	 424	 414
  28	 260	 250
  29	 346	 336
  30	 503	 493
  31	 263	 253
  32	 264	 254
  33	 480	 470
  34	 267	 257
  35	 283	 273
  36	 413	 403
  37	 272	 262
  38	 345	 335
  39	 443	 433
  40	 283	 273
  41	 304	 294
  42	 385	 375
  43	 286	 276
  44	 359	 349
  45	 432	 422
  46	 286	 276
  47	 312	 302
  48	 456	 446
  49	 284	 274
  50	 290	 280
  51	 362	 352
  52	 328	 318
  53	 340	 330
  54	 412	 402
  55	 279	 269
  56	 339	 329
  57	 446	 436
  58	 264	 254
  59	 320	 310
  60	 367	 357
  61	 278	 268
  62	 385	 375
  63	 420	 410
  64	 272	 262
  65	 338	 328
  66	 362	 352
  67	 285	 275
  68	 383	 373
  69	 433	 423
  70	 272	 262
  71	 325	 315
  72	 436	 426
  73	 276	 266
  74	 318	 308
  75	 398	 388
  76	 261	 251
  77	 371	 361
  78	 396	 386
  79	 282	 272
  80	 352	 342
  81	 384	 374
  82	 264	 254
  83	 382	 372
  84	 418	 408
  85	 297	 287
  86	 315	 305
  87	 452	 442
  88	 262	 252
  89	 316	 306
  90	 374	 364
  91	 312	 302
  92	 344	 334
  93	 373	 363
  94	 275	 265
  95	 382	 372
  96	 406	 396
  97	 302	 292
  98	 322	 312
  99	 495	 485
 100	 265	 255
 101	 270	 260
 102	 446	 436
 103	 266	 256
 104	 318	 308
 105	 455	 445
 106	 280	 270
 107	 295	 285
 108	 429	 419
 109	 285	 275
 110	 316	 306
 111	 437	 427
 112	 260	 250
 113	 333	 323
 114	 500	 490
 115	 262	 252
 116	 268	 258
 117	 506	 496
 118	 260	 250
 119	 264	 254
;

set E :=
   0	   6
   0	  12
   0	  16
   0	  18
   0	  27
   0	  28
   0	  38
   0	  57
   0	  80
   0	  81
   0	  84
   0	  85
   0	  86
   0	  95
   0	  97
   0	  99
   0	 100
   0	 107
   1	   7
   1	  13
   1	  18
   1	  22
   1	  23
   1	  26
   1	  30
   1	  60
   1	  61
   1	  66
   1	  73
   1	  75
   1	  79
   1	  81
   1	  85
   1	  93
   1	  95
   1	  96
   1	 102
   1	 105
   1	 112
   2	   4
   2	   7
   2	   9
   2	  11
   2	  14
   2	  18
   2	  29
   2	  49
   2	  53
   2	  56
   2	  58
   2	  66
   2	  69
   2	  74
   2	  75
   2	  76
   2	  80
   2	  82
   2	  89
   2	  95
   2	 112
   2	 114
   2	 119
   3	   4
   3	   7
   3	  10
   3	  13
   3	  17
   3	  20
   3	  23
   3	  32
   3	  34
   3	  41
   3	  45
   3	  48
   3	  50
   3	  51
   3	  62
   3	  73
   3	  74
   3	  75
   3	  76
   3	  79
   3	  80
   3	  81
   3	  84
   3	  85
   3	  89
   3	  95
   3	  99
   3	 103
   3	 108
   3	 117
   4	  16
   4	  42
   4	  44
   4	  47
   4	  53
   4	  54
   4	  56
   4	  59
   4	  63
   4	  66
   4	  67
   4	  71
   4	  72
   4	  73
   4	  76
   4	  79
   4	  80
   4	  82
   4	  88
   4	 100
   4	 101
   4	 103
   4	 105
   4	 110
   4	 113
   4	 114
   4	 117
   5	   6
   5	   7
   5	  12
   5	  15
   5	  17
   5	  18
   5	  22
   5	  29
   5	  33
   5	  40
   5	  46
   5	  47
   5	  52
   5	  55
   5	  56
   5	  59
   5	  61
   5	  76
   5	  87
   5	  91
   5	  97
   5	 100
   5	 112
   5	 114
   6	  20
   6	  29
   6	  38
   6	  42
   6	  46
   6	  51
   6	  52
   6	  55
   6	  58
   6	  59
   6	  61
   6	  62
   6	  65
   6	  70
   6	  71
   6	  73
   6	  87
   6	  94
   6	  96
   6	 100
   6	 117
   7	  13
   7	  18
   7	  20
   7	  22
   7	  25
   7	  26
   7	  30
   7	  31
   7	  34
   7	  48
   7	  49
   7	  60
   7	  61
   7	  65
   7	  66
   7	  72
   7	  73
   7	  78
   7	  82
   7	  86
   7	  89
   7	  94
   7	 102
   7	 115
   7	 118
   8	   9
   8	  14
   8	  15
   8	  20
   8	  24
   8	  43
   8	  54
   8	  59
   8	  60
   8	  69
   8	  71
   8	  78
   8	  79
   8	  85
   8	  86
   8	 105
   8	 107
   8	 108
   8	 110
   8	 118
   9	  20
   9	  23
   9	  24
   9	  25
   9	  27
   9	  28
   9	  32
   9	  41
   9	  47
   9	  55
   9	  62
   9	  68
   9	  72
   9	  90
   9	  96
   9	  97
   9	 103
   9	 105
   9	 107
   9	 114
  10	  19
  10	  20
  10	  21
  10	  25
  10	  28
  10	  30
  10	  42
  10	  47
  10	  52
  10	  53
  10	  54
  10	  56
  10	  61
  10	  62
  10	  66
  10	  69
  10	  78
  10	  80
  10	  82
  10	  83
  10	  89
  10	  91
  10	  96
  10	  97
  10	 103
  10	 110
  10	 116
  11	  15
  11	  18
  11	  24
  11	  27
  11	  30
  11	  33
  11	  45
  11	  46
  11	  48
  11	  49
  11	  51
  11	  56
  11	  59
  11	  60
  11	  61
  11	  72
  11	  75
  11	  85
  11	  91
  11	  92
  11	  93
  11	  99
  11	 103
  11	 104
  11	 106
  11	 111
  11	 114
  12	  17
  12	  24
  12	  28
  12	  31
  12	  43
  12	  45
  12	  47
  12	  48
  12	  52
  12	  58
  12	  65
  12	  75
  12	  78
  12	  95
  12	  99
  12	 100
  12	 104
  12	 109
  12	 112
  12	 115
  12	 116
  13	  17
  13	  18
  13	  19
  13	  33
  13	  36
  13	  39
  13	  50
  13	  51
  13	  52
  13	  60
  13	  67
  13	  77
  13	  82
  14	  17
  14	  40
  14	  43
  14	  51
  14	  53
  14	  58
  14	  59
  14	  63
  14	  69
  14	  84
  14	  87
  14	  91
  14	 100
  14	 113
  15	  16
  15	  17
  15	  40
  15	  43
  15	  44
  15	  46
  15	  52
  15	  55
  15	  60
  15	  62
  15	  67
  15	  69
  15	  71
  15	  76
  15	  78
  15	  81
  15	  84
  15	  94
  15	  96
  15	  99
  15	 109
  15	 117
  15	 118
  16	  24
  16	  25
  16	  26
  16	  28
  16	  29
  16	  32
  16	  38
  16	  40
  16	  42
  16	  48
  16	  56
  16	  58
  16	  63
  16	  65
  16	  70
  16	  77
  16	  82
  16	  86
  16	  90
  16	 101
  16	 102
  16	 104
  16	 110
  16	 111
  16	 115
  17	  47
  17	  50
  17	  56
  17	  57
  17	  59
  17	  60
  17	  63
  17	  67
  17	  80
  17	  86
  17	  90
  17	  94
  17	  96
  17	 106
  17	 108
  17	 111
  17	 116
  17	 119
  18	  23
  18	  24
  18	  38
  18	  41
  18	  51
  18	  55
  18	  57
  18	  59
  18	  67
  18	  70
  18	  80
  18	  87
  18	  89
  18	  93
  18	  98
  18	 102
  18	 108
  18	 113
  18	 114
  18	 116
  19	  21
  19	  26
  19	  28
  19	  34
  19	  37
  19	  46
  19	  48
  19	  60
  19	  64
  19	  67
  19	  71
  19	  72
  19	  78
  19	  89
  19	  91
  19	  92
  19	  98
  19	  99
  19	 100
  19	 106
  19	 109
  19	 116
  20	  21
  20	  23
  20	  26
  20	  42
  20	  43
  20	  45
  20	  49
  20	  74
  20	  91
  20	  93
  20	  98
  20	  99
  20	 103
  21	  25
  21	  26
  21	  30
  21	  32
  21	  33
  21	  36
  21	  46
  21	  47
  21	  53
  21	  54
  21	  65
  21	  66
  21	  74
  21	  79
  21	  81
  21	  83
  21	  92
  21	  93
  21	  94
  21	  96
  21	  97
  21	 110
  21	 118
  21	 119
  22	  31
  22	  35
  22	  47
  22	  48
  22	  50
  22	  52
  22	  56
  22	  58
  22	  60
  22	  61
  22	  62
  22	  68
  22	  70
  22	  88
  22	  89
  22	  90
  22	  91
  22	  95
  22	 105
  22	 108
  22	 114
  22	 115
  22	 116
  23	  31
  23	  36
  23	  43
  23	  44
  23	  54
  23	  55
  23	  56
  23	  59
  23	  61
  23	  62
  23	  63
  23	  65
  23	  67
  23	  70
  23	  71
  23	  72
  23	  73
  23	  83
  23	 101
  23	 112
  23	 118
  24	  25
  24	  30
  24	  34
  24	  36
  24	  39
  24	  51
  24	  52
  24	  60
  24	  74
  24	  77
  24	  85
  24	 102
  24	 109
  24	 113
  25	  32
  25	  34
  25	  43
  25	  45
  25	  50
  25	  54
  25	  55
  25	  63
  25	  65
  25	  70
  25	  74
  25	  80
  25	  89
  25	  90
  25	  91
  25	  92
  25	  93
  25	 101
  26	  29
  26	  32
  26	  34
  26	  38
  26	  39
  26	  47
  26	  56
  26	  57
  26	  59
  26	  61
  26	  76
  26	  78
  26	  85
  26	  99
  26	 100
  26	 104
  26	 107
  27	  31
  27	  35
  27	  51
  27	  53
  27	  61
  27	  76
  27	  77
  27	  95
  27	 110
  28	  30
  28	  38
  28	  50
  28	  56
  28	  57
  28	  59
  28	  62
  28	  72
  28	  78
  28	  86
  28	  90
  28	  92
  28	  94
  28	  96
  28	 108
  28	 111
  28	 119
  29	  30
  29	  31
  29	  43
  29	  45
  29	  54
  29	  59
  29	  69
  29	  74
  29	  77
  29	  80
  29	  88
  29	  90
  29	  93
  29	  94
  29	 114
  30	  47
  30	  48
  30	  52
  30	  56
  30	  57
  30	  61
  30	  65
  30	  74
  30	  80
  30	  83
  30	  85
  30	  90
  30	 100
  30	 104
  30	 119
  31	  33
  31	  34
  31	  37
  31	  54
  31	  62
  31	  63
  31	  69
  31	  70
  31	  74
  31	  77
  31	  81
  31	  85
  31	  86
  31	 108
  31	 117
  32	  33
  32	  45
  32	  46
  32	  47
  32	  52
  32	  55
  32	  65
  32	  66
  32	  75
  32	  78
  32	  86
  32	  88
  32	  89
  32	  91
  32	  99
  32	 116
  32	 117
  33	  38
  33	  54
  33	  57
  33	  66
  33	  71
  33	  86
  33	  87
  33	  93
  33	  94
  33	  97
  33	 101
  33	 106
  33	 109
  33	 115
  33	 117
  34	  41
  34	  43
  34	  51
  34	  59
  34	  69
  34	  73
  34	  80
  34	  86
  34	  95
  34	  96
  34	 106
  34	 109
  34	 115
  35	  36
  35	  41
  35	  46
  35	  54
  35	  55
  35	  56
  35	  66
  35	  70
  35	  84
  35	  86
  35	  91
  35	  95
  35	 105
  35	 108
  35	 109
  35	 110
  35	 111
  35	 114
  35	 117
  36	  38
  36	  51
  36	  58
  36	  59
  36	  71
  36	  73
  36	  82
  36	  84
  36	  86
  36	  91
  36	 106
  37	  42
  37	  48
  37	  49
  37	  54
  37	  55
  37	  56
  37	  60
  37	  63
  37	  66
  37	  68
  37	  75
  37	  76
  37	  77
  37	  93
  37	  94
  37	  97
  37	 104
  37	 105
  37	 107
  37	 113
  38	  43
  38	  44
  38	  55
  38	  56
  38	  62
  38	  68
  38	  85
  38	  86
  38	  89
  38	  99
  38	 102
  38	 105
  38	 108
  38	 113
  38	 116
  38	 117
  39	  45
  39	  57
  39	  58
  39	  59
  39	  62
  39	  70
  39	  72
  39	  75
  39	  85
  39	  88
  39	 101
  39	 110
  39	 116
  39	 119
  40	  42
  40	  43
  40	  45
  40	  53
  40	  55
  40	  57
  40	  58
  40	  59
  40	  62
  40	  68
  40	  75
  40	  77
  40	  91
  40	  94
  40	 102
  40	 106
  40	 109
  40	 112
  40	 114
  40	 115
  41	  43
  41	  48
  41	  53
  41	  57
  41	  72
  41	  74
  41	  78
  41	  82
  41	  84
  41	  88
  41	  97
  41	 110
  41	 112
  41	 115
  41	 116
  41	 117
  41	 118
  42	  43
  42	  46
  42	  47
  42	  52
  42	  57
  42	  59
  42	  60
  42	  70
  42	  71
  42	  72
  42	  73
  42	  84
  42	  87
  42	  91
  42	  96
  42	  97
  42	 108
  42	 119
  43	  52
  43	  59
  43	  74
  43	  77
  43	  79
  43	  80
  43	  81
  43	 103
  43	 105
  43	 106
  43	 116
  43	 119
  44	  48
  44	  51
  44	  77
  44	  81
  44	  82
  44	  88
  44	  90
  44	  92
  44	  93
  44	 101
  44	 103
  44	 107
  44	 108
  44	 109
  44	 116
  44	 117
  45	  49
  45	  62
  45	  63
  45	  78
  45	  84
  45	  95
  45	  96
  45	 100
  45	 113
  45	 116
  46	  49
  46	  52
  46	  53
  46	  55
  46	  61
  46	  62
  46	  63
  46	  65
  46	  71
  46	  73
  46	  75
  46	  76
  46	  81
  46	  86
  46	  89
  46	  91
  46	  92
  46	  99
  46	 100
  46	 104
  46	 106
  46	 107
  46	 108
  46	 109
  46	 110
  46	 114
  47	  53
  47	  64
  47	  67
  47	  70
  47	  71
  47	  73
  47	  75
  47	  79
  47	  88
  47	  95
  47	  98
  47	  99
  47	 115
  47	 117
  48	  49
  48	  57
  48	  67
  48	  74
  48	  82
  48	  87
  48	  88
  48	  95
  48	 110
  48	 111
  48	 117
  49	  54
  49	  55
  49	  67
  49	  74
  49	  78
  49	  94
  49	  95
  49	 100
  49	 102
  49	 114
  49	 115
  49	 117
  50	  55
  50	  56
  50	  68
  50	  71
  50	  84
  50	  86
  50	  90
  50	  94
  50	  95
  50	  96
  50	 100
  50	 101
  50	 108
  50	 113
  50	 119
  51	  58
  51	  66
  51	  69
  51	  81
  51	  83
  51	  85
  51	  86
  51	  90
  51	  99
  51	 116
  51	 118
  51	 119
  52	  53
  52	  64
  52	  68
  52	  79
  52	  84
  52	  89
  52	 106
  52	 119
  53	  58
  53	  60
  53	  65
  53	  68
  53	  74
  53	  80
  53	  82
  53	  89
  53	  94
  53	 103
  53	 109
  53	 111
  53	 112
  54	  61
  54	  63
  54	  64
  54	  66
  54	  67
  54	  68
  54	  73
  54	  87
  54	  96
  54	  98
  54	  99
  54	 101
  54	 106
  54	 115
  54	 118
  55	  57
  55	  64
  55	  72
  55	  73
  55	  76
  55	  82
  55	  86
  55	  91
  55	  92
  55	  95
  55	 101
  55	 113
  55	 115
  55	 119
  56	  66
  56	  67
  56	  69
  56	  70
  56	  71
  56	  72
  56	  73
  56	  74
  56	  75
  56	  89
  56	  93
  56	  95
  56	  96
  56	  98
  56	 106
  56	 109
  57	  59
  57	  64
  57	  65
  57	  71
  57	  72
  57	  84
  57	  86
  57	  88
  57	  91
  57	  93
  57	 104
  57	 106
  57	 107
  57	 115
  57	 116
  57	 117
  57	 118
  58	  63
  58	  64
  58	  66
  58	  74
  58	  75
  58	  89
  58	 100
  58	 102
  58	 103
  58	 104
  58	 108
  58	 109
  58	 115
  58	 119
  59	  60
  59	  61
  59	  63
  59	  68
  59	  79
  59	  84
  59	  86
  59	  88
  59	  91
  59	  96
  59	  97
  59	 101
  59	 106
  59	 108
  59	 117
  59	 119
  60	  65
  60	  68
  60	  86
  60	  87
  60	  99
  60	 106
  60	 112
  60	 113
  60	 116
  60	 119
  61	  65
  61	  66
  61	  74
  61	  77
  61	  89
  61	  90
  61	  91
  62	  68
  62	  69
  62	  73
  62	  76
  62	  78
  62	  79
  62	  81
  62	  95
  62	 101
  62	 106
  62	 108
  62	 117
  63	  65
  63	  70
  63	  82
  63	  85
  63	  93
  63	 104
  63	 108
  63	 113
  63	 117
  64	  69
  64	  74
  64	  75
  64	  76
  64	  79
  64	  81
  64	  86
  64	  91
  64	  92
  64	 100
  64	 102
  64	 108
  64	 113
  64	 114
  64	 115
  64	 118
  65	  74
  65	  82
  65	  83
  65	  86
  65	  87
  65	  89
  65	  90
  65	  91
  65	  92
  65	  94
  65	  95
  65	  96
  65	  98
  65	 104
  65	 106
  65	 111
  65	 114
  65	 117
  66	  67
  66	  69
  66	  74
  66	  84
  66	  86
  66	  99
  66	 101
  66	 106
  66	 118
  67	  68
  67	  71
  67	  73
  67	  81
  67	  82
  67	  94
  67	  98
  67	 101
  67	 109
  67	 112
  68	  70
  68	  77
  68	  79
  68	  82
  68	  85
  68	  86
  68	  88
  68	  91
  68	  93
  68	  96
  68	 101
  68	 102
  68	 106
  68	 117
  69	  70
  69	  82
  69	  91
  69	 100
  69	 105
  69	 110
  69	 111
  69	 115
  70	  71
  70	  72
  70	  77
  70	  83
  70	  94
  70	 116
  71	  75
  71	  81
  71	  82
  71	  83
  71	  85
  71	  92
  71	  94
  71	  95
  71	  98
  71	  99
  71	 100
  71	 105
  71	 110
  71	 113
  71	 115
  72	  77
  72	  81
  72	  89
  72	 109
  72	 115
  73	  75
  73	  85
  73	  86
  73	  91
  73	  92
  73	 107
  73	 117
  74	  75
  74	  85
  74	  88
  74	  89
  74	  94
  74	 103
  74	 104
  74	 110
  74	 111
  74	 113
  74	 114
  74	 115
  74	 116
  75	  81
  75	  96
  75	  99
  75	 111
  75	 116
  75	 117
  75	 118
  75	 119
  76	  81
  76	  94
  76	  95
  76	 105
  76	 106
  76	 107
  76	 110
  76	 112
  76	 115
  77	  93
  77	  94
  77	 103
  77	 105
  77	 119
  78	  82
  78	  91
  78	  92
  78	  95
  78	  98
  78	 107
  78	 108
  78	 114
  78	 118
  79	  83
  79	  85
  79	  90
  79	  96
  79	  97
  79	 100
  79	 118
  80	  84
  80	  86
  80	  92
  80	  93
  80	  95
  80	  98
  80	 109
  80	 114
  81	  83
  81	  86
  81	  89
  81	  90
  81	  91
  81	  96
  81	 107
  81	 112
  81	 114
  81	 117
  82	  84
  82	  90
  82	  95
  82	  96
  82	 103
  82	 108
  83	  88
  83	  90
  83	  91
  83	  92
  83	  95
  83	 103
  83	 105
  83	 110
  83	 113
  83	 114
  83	 115
  83	 117
  83	 119
  84	  88
  84	  92
  84	  94
  84	  96
  84	  98
  84	 101
  84	 114
  84	 116
  85	  87
  85	 105
  85	 106
  85	 110
  85	 114
  85	 119
  86	  87
  86	  91
  86	 103
  86	 104
  86	 107
  86	 110
  86	 111
  86	 115
  87	  93
  87	 106
  88	  89
  88	  93
  88	  98
  88	 108
  88	 118
  89	  91
  89	 104
  89	 110
  89	 112
  89	 117
  89	 119
  90	  95
  90	  97
  90	  99
  90	 106
  90	 108
  90	 110
  90	 111
  90	 117
  90	 119
  91	  93
  91	  95
  91	  98
  91	  99
  91	 101
  91	 104
  91	 106
  91	 107
  91	 109
  91	 110
  91	 113
  91	 115
  91	 119
  92	  97
  92	  98
  92	 107
  92	 117
  93	  95
  93	  99
  93	 105
  93	 106
  93	 110
  93	 113
  93	 114
  93	 117
  93	 118
  94	  95
  94	  98
  94	  99
  94	 101
  94	 102
  94	 115
  94	 118
  95	  99
  95	 106
  95	 108
  95	 110
  95	 115
  95	 119
  96	  97
  96	 100
  96	 111
  96	 119
  97	 106
  97	 111
  97	 112
  97	 119
  98	  99
  98	 119
  99	 104
  99	 109
  99	 113
  99	 117
  99	 118
 100	 102
 100	 109
 100	 111
 100	 113
 100	 119
 101	 103
 101	 104
 101	 105
 101	 108
 101	 112
 101	 116
 101	 118
 102	 104
 102	 106
 102	 107
 102	 109
 103	 104
 103	 107
 103	 108
 103	 113
 103	 115
 103	 116
 104	 110
 104	 112
 104	 113
 104	 115
 104	 117
 105	 110
 107	 108
 107	 109
 107	 112
 107	 115
 108	 111
 108	 114
 108	 116
 108	 119
 109	 117
 109	 118
 109	 119
 110	 112
 110	 113
 111	 115
 111	 119
 113	 115
 113	 118
 115	 118
 117	 119
;
